NAME: CMT5_7
TYPE: CVRP
COMMENT: 1291.29 - Cluster Nr.7
DIMENSION: 14
CAPACITY: 200
EDGE_WEIGHT_TYPE: EUC_2D
NODE_COORD_TYPE: TWOD_COORDS
NODE_COORD_SECTION: 
4 42 41
14 35 40
12 33 34
6 33 44
9 30 48
2 38 46
1 41 46
11 27 43
13 37 47
7 31 32
8 35 35
5 41 37
10 32 39
3 35 51
DEPOT_SECTION: 
8
-1
DEMAND_SECTION: 
6 20
8 0
2 12
5 16
3 16
9 15
1 18
12 19
11 9
10 5
4 19
14 16
13 6
7 29
EOF
